c n orig vars 109
p cnf 182 256
160 0
-125 131 0
-125 174 0
125 -131 -174 0
172 -49 0
172 -50 0
-172 49 50 0
-111 120 0
-111 121 0
111 -120 -121 0
112 -92 0
112 -91 0
-112 92 91 0
113 -159 0
113 -76 0
113 -79 0
113 -162 0
-113 159 76 79 162 0
114 -94 0
114 -93 0
114 -112 0
-114 94 93 112 0
115 -114 0
115 -96 0
115 -95 0
115 -111 0
-115 114 96 95 111 0
116 -156 0
116 -83 0
116 -80 0
116 -155 0
-116 156 83 80 155 0
117 -103 0
117 -108 0
-117 103 108 0
118 -109 0
118 -97 0
-118 109 97 0
171 -119 0
171 -45 0
171 -46 0
171 -125 0
-171 119 45 46 125 0
-124 173 0
-124 137 0
-124 171 0
124 -173 -137 -171 0
120 -90 0
120 -99 0
-120 90 99 0
121 -98 0
121 -82 0
-121 98 82 0
-122 123 0
-122 124 0
122 -123 -124 0
-123 152 0
-123 126 0
123 -152 -126 0
119 -43 0
119 -44 0
119 -172 0
-119 43 44 172 0
152 -127 0
152 -63 0
152 -64 0
152 -128 0
-152 127 63 64 128 0
126 -170 0
126 -36 0
126 -35 0
126 -169 0
-126 170 36 35 169 0
127 -65 0
127 -66 0
127 -129 0
-127 65 66 129 0
-128 130 0
-128 151 0
128 -130 -151 0
129 -67 0
129 -56 0
-129 67 56 0
130 -68 0
130 -69 0
-130 68 69 0
151 -60 0
151 -61 0
-151 60 61 0
132 -23 0
132 -24 0
-132 23 24 0
133 -21 0
133 -22 0
-133 21 22 0
134 -18 0
134 -17 0
-134 18 17 0
135 -20 0
135 -19 0
-135 20 19 0
-136 134 0
-136 135 0
136 -134 -135 0
178 -16 0
178 -15 0
-178 16 15 0
138 -58 0
138 -54 0
138 -147 0
-138 58 54 147 0
139 -175 0
139 -105 0
139 -106 0
139 -146 0
-139 175 105 106 146 0
140 -180 0
140 -3 0
140 -6 0
140 -179 0
-140 180 3 6 179 0
141 -138 0
141 -57 0
141 -59 0
141 -148 0
-141 138 57 59 148 0
-142 115 0
-142 116 0
-142 113 0
142 -115 -116 -113 0
-143 141 0
-143 140 0
-143 139 0
143 -141 -140 -139 0
-144 143 0
-144 142 0
144 -143 -142 0
165 -32 0
165 -31 0
-165 32 31 0
147 -53 0
147 -56 0
-147 53 56 0
-148 182 0
-148 181 0
148 -182 -181 0
149 -29 0
149 -30 0
-149 29 30 0
174 -41 0
174 -42 0
-174 41 42 0
158 -25 0
158 -26 0
158 -132 0
-158 25 26 132 0
173 -158 0
173 -27 0
173 -28 0
173 -177 0
-173 158 27 28 177 0
110 -14 0
110 -13 0
110 -178 0
-110 14 13 178 0
-177 133 0
-177 149 0
177 -133 -149 0
-160 144 0
-160 122 0
160 -144 -122 0
-155 157 0
-155 154 0
155 -157 -154 0
156 -81 0
156 -86 0
156 -150 0
-156 81 86 150 0
157 -85 0
157 -88 0
-157 85 88 0
150 -87 0
150 -84 0
-150 87 84 0
159 -78 0
159 -73 0
159 -161 0
-159 78 73 161 0
154 -89 0
154 -77 0
-154 89 77 0
161 -72 0
161 -75 0
-161 72 75 0
-162 164 0
-162 163 0
162 -164 -163 0
163 -70 0
163 -62 0
-163 70 62 0
164 -74 0
164 -71 0
-164 74 71 0
167 -38 0
167 -37 0
-167 38 37 0
168 -40 0
168 -39 0
-168 40 39 0
-169 167 0
-169 165 0
169 -167 -165 0
170 -34 0
170 -33 0
170 -168 0
-170 34 33 168 0
131 -47 0
131 -48 0
-131 47 48 0
137 -110 0
137 -12 0
137 -11 0
137 -136 0
-137 110 12 11 136 0
145 -101 0
145 -102 0
-145 101 102 0
-146 117 0
-146 118 0
146 -117 -118 0
175 -107 0
175 -100 0
175 -145 0
-175 107 100 145 0
176 -1 0
176 -104 0
-176 1 104 0
153 -9 0
153 -2 0
-153 9 2 0
166 -7 0
166 -10 0
-166 7 10 0
-179 153 0
-179 176 0
179 -153 -176 0
180 -5 0
180 -8 0
180 -166 0
-180 5 8 166 0
181 -51 0
181 -4 0
-181 51 4 0
182 -55 0
182 -52 0
-182 55 52 0
